750
750 750
1 599 153
2 599 634
3 598 913
4 598 257
5 597 176
6 597 212
7 596 598
8 596 10
9 596 856
10 596 16
11 595 42
12 595 313
13 595 591
14 595 962
15 594 573
16 593 889
17 593 594
18 587 921
19 586 565
20 585 201
21 585 963
22 583 796
23 582 983
24 582 804
25 582 995
26 580 915
27 579 940
28 579 126
29 579 876
30 578 172
31 578 257
32 576 474
33 576 611
34 576 938
35 574 876
36 573 830
37 572 588
38 571 162
39 571 747
40 570 485
41 570 111
42 569 288
43 568 511
44 567 561
45 566 344
46 565 323
47 563 875
48 562 389
49 562 495
50 562 377
51 561 873
52 561 965
53 560 611
54 559 302
55 559 771
56 558 213
57 557 749
58 556 896
59 556 961
60 555 299
61 553 470
62 553 758
63 552 517
64 552 940
65 551 354
66 551 999
67 550 591
68 550 472
69 550 800
70 550 330
71 550 594
72 549 15
73 547 231
74 546 706
75 546 79
76 545 778
77 545 819
78 544 93
79 543 656
80 543 170
81 542 928
82 541 830
83 540 912
84 540 972
85 540 581
86 540 842
87 540 192
88 538 119
89 538 529
90 537 493
91 537 297
92 537 114
93 536 819
94 536 531
95 535 988
96 532 61
97 530 227
98 529 983
99 529 942
100 529 48
101 528 392
102 527 400
103 524 581
104 524 529
105 523 814
106 520 562
107 519 552
108 518 743
109 517 554
110 516 58
111 516 256
112 514 351
113 512 959
114 512 123
115 512 1
116 511 476
117 511 227
118 510 125
119 510 336
120 508 8
121 508 666
122 508 481
123 507 589
124 507 788
125 506 190
126 506 183
127 506 996
128 504 236
129 504 322
130 503 174
131 503 221
132 502 717
133 501 545
134 500 540
135 499 32
136 498 139
137 498 894
138 498 25
139 498 626
140 498 352
141 498 37
142 497 107
143 494 676
144 494 74
145 493 404
146 491 964
147 489 989
148 489 985
149 488 327
150 488 19
151 488 167
152 487 775
153 485 894
154 485 472
155 485 224
156 484 611
157 483 171
158 483 662
159 481 887
160 480 262
161 479 554
162 479 579
163 479 105
164 479 11
165 477 161
166 476 95
167 476 520
168 475 520
169 475 758
170 474 181
171 473 789
172 472 534
173 471 67
174 471 270
175 468 60
176 468 52
177 468 507
178 468 345
179 468 6
180 467 493
181 467 369
182 465 26
183 464 926
184 463 479
185 463 249
186 462 115
187 462 132
188 461 770
189 460 524
190 459 416
191 458 571
192 457 441
193 457 823
194 457 336
195 457 140
196 456 914
197 456 234
198 455 950
199 454 866
200 454 530
201 454 616
202 452 661
203 451 279
204 451 344
205 451 504
206 451 857
207 450 877
208 449 362
209 448 119
210 448 79
211 447 372
212 446 813
213 446 878
214 446 946
215 445 383
216 445 788
217 445 85
218 444 252
219 444 499
220 444 824
221 444 630
222 444 5
223 443 279
224 441 418
225 440 198
226 439 126
227 438 135
228 438 184
229 438 849
230 436 932
231 436 183
232 436 905
233 435 114
234 435 778
235 434 472
236 433 330
237 432 173
238 432 408
239 432 312
240 432 536
241 431 819
242 431 793
243 431 19
244 430 860
245 430 425
246 430 540
247 429 657
248 429 303
249 429 771
250 426 152
251 426 255
252 426 820
253 425 448
254 424 143
255 422 467
256 421 550
257 421 439
258 417 865
259 417 166
260 417 265
261 416 125
262 416 841
263 416 408
264 414 760
265 413 298
266 411 542
267 411 539
268 410 710
269 409 358
270 407 738
271 407 583
272 407 311
273 407 815
274 406 84
275 404 345
276 402 298
277 402 82
278 401 487
279 401 202
280 400 783
281 400 638
282 397 406
283 396 254
284 396 22
285 396 442
286 395 514
287 394 195
288 394 312
289 394 52
290 393 294
291 393 558
292 393 384
293 392 100
294 392 694
295 391 879
296 390 95
297 390 380
298 389 364
299 389 566
300 389 589
301 389 341
302 388 260
303 388 297
304 388 571
305 388 99
306 387 467
307 387 266
308 386 741
309 385 578
310 383 926
311 383 661
312 383 554
313 382 24
314 381 797
315 380 44
316 380 937
317 380 612
318 380 855
319 380 811
320 380 414
321 380 11
322 378 379
323 377 284
324 377 123
325 377 517
326 373 451
327 373 611
328 372 737
329 372 146
330 371 484
331 370 361
332 369 658
333 368 701
334 368 41
335 366 11
336 365 778
337 365 270
338 364 217
339 364 211
340 364 485
341 363 210
342 363 711
343 363 929
344 362 999
345 361 734
346 361 343
347 361 380
348 361 753
349 360 137
350 360 656
351 359 722
352 359 99
353 359 357
354 358 70
355 355 536
356 355 630
357 355 340
358 354 244
359 354 770
360 354 666
361 353 418
362 353 472
363 353 371
364 352 431
365 350 166
366 350 802
367 350 654
368 350 960
369 347 375
370 347 937
371 346 925
372 345 159
373 344 454
374 344 496
375 344 15
376 343 162
377 342 237
378 341 622
379 341 8
380 341 326
381 340 732
382 339 33
383 339 758
384 339 46
385 338 337
386 338 401
387 338 76
388 337 127
389 335 842
390 335 53
391 334 543
392 334 728
393 333 119
394 333 189
395 331 272
396 331 703
397 331 916
398 330 4
399 328 203
400 326 729
401 325 441
402 324 455
403 324 768
404 323 906
405 321 179
406 320 600
407 320 602
408 319 281
409 319 534
410 318 595
411 317 452
412 316 234
413 315 380
414 315 746
415 315 114
416 313 246
417 313 446
418 312 278
419 312 350
420 312 614
421 310 380
422 309 727
423 309 75
424 307 961
425 305 521
426 305 812
427 304 703
428 304 275
429 303 896
430 303 677
431 303 593
432 302 740
433 301 69
434 301 195
435 299 225
436 299 695
437 298 127
438 297 655
439 297 998
440 297 312
441 297 94
442 297 433
443 296 456
444 295 321
445 295 976
446 295 655
447 295 678
448 294 100
449 294 996
450 293 511
451 292 639
452 289 543
453 289 978
454 288 535
455 288 108
456 287 415
457 286 920
458 286 364
459 286 289
460 286 165
461 285 683
462 283 583
463 283 699
464 282 972
465 282 344
466 282 458
467 282 462
468 281 491
469 281 324
470 280 360
471 279 907
472 278 417
473 278 989
474 277 167
475 277 316
476 276 861
477 275 855
478 275 657
479 274 645
480 274 141
481 273 964
482 273 299
483 272 380
484 270 534
485 268 331
486 268 538
487 268 57
488 268 350
489 267 486
490 266 967
491 265 538
492 265 320
493 264 114
494 262 934
495 261 787
496 261 754
497 259 773
498 259 619
499 257 153
500 257 959
501 257 428
502 256 269
503 256 775
504 255 605
505 254 185
506 254 12
507 253 722
508 253 898
509 252 954
510 250 303
511 249 100
512 249 263
513 248 126
514 247 909
515 246 3
516 244 841
517 244 184
518 244 725
519 242 745
520 241 406
521 241 648
522 240 168
523 239 916
524 238 966
525 238 677
526 238 542
527 236 189
528 236 969
529 235 413
530 235 108
531 234 592
532 234 384
533 233 305
534 233 578
535 232 520
536 231 319
537 230 418
538 230 464
539 229 598
540 228 34
541 228 459
542 227 63
543 227 776
544 226 477
545 226 964
546 225 744
547 225 986
548 224 415
549 223 259
550 223 242
551 219 33
552 219 241
553 218 448
554 218 608
555 214 249
556 214 939
557 213 669
558 211 714
559 210 863
560 209 655
561 209 582
562 208 745
563 208 689
564 206 119
565 206 822
566 206 74
567 204 156
568 203 951
569 201 130
570 201 876
571 199 258
572 199 974
573 198 760
574 198 135
575 198 220
576 197 544
577 197 648
578 196 656
579 195 406
580 195 456
581 195 251
582 195 828
583 194 699
584 193 640
585 193 947
586 193 498
587 193 766
588 192 461
589 192 11
590 192 662
591 192 72
592 192 190
593 190 140
594 190 412
595 189 767
596 189 49
597 189 131
598 188 450
599 188 491
600 188 496
601 188 782
602 187 132
603 187 985
604 187 17
605 185 418
606 185 59
607 184 149
608 184 411
609 184 811
610 183 338
611 182 567
612 180 294
613 178 523
614 176 343
615 175 455
616 174 915
617 174 185
618 173 83
619 171 836
620 171 931
621 170 611
622 169 259
623 168 28
624 168 328
625 168 922
626 168 69
627 167 934
628 165 90
629 165 340
630 165 726
631 164 534
632 164 727
633 162 691
634 161 759
635 161 447
636 159 315
637 159 352
638 158 154
639 157 416
640 156 1000
641 156 519
642 155 98
643 155 213
644 154 290
645 154 114
646 154 759
647 153 854
648 152 389
649 150 367
650 149 84
651 148 713
652 148 394
653 148 333
654 148 262
655 147 176
656 146 356
657 146 633
658 145 474
659 145 519
660 145 980
661 144 805
662 143 763
663 142 623
664 140 961
665 140 167
666 138 136
667 137 817
668 136 760
669 136 840
670 135 358
671 135 741
672 135 576
673 135 59
674 134 981
675 134 559
676 134 810
677 132 731
678 132 450
679 132 295
680 131 932
681 131 605
682 129 749
683 129 364
684 126 671
685 126 429
686 125 974
687 125 451
688 124 63
689 123 961
690 123 540
691 123 512
692 121 321
693 120 667
694 120 458
695 120 706
696 117 662
697 117 629
698 116 840
699 116 253
700 115 311
701 114 520
702 113 693
703 113 483
704 113 482
705 113 961
706 112 570
707 111 656
708 111 319
709 109 52
710 109 575
711 109 776
712 108 594
713 108 56
714 107 866
715 107 803
716 105 180
717 103 655
718 103 900
719 101 960
720 101 306
721 101 90
722 100 483
723 99 932
724 98 539
725 97 185
726 97 901
727 97 679
728 94 920
729 94 723
730 92 689
731 91 420
732 89 354
733 88 129
734 88 692
735 88 489
736 86 846
737 85 564
738 83 546
739 82 634
740 82 95
741 82 85
742 81 41
743 80 418
744 80 966
745 80 966
746 79 629
747 79 12
748 78 983
749 78 478
750 78 233
